\ Model DSFLP-DRA
\ LP format - for model browsing. Use MPS format to capture full model detail.
Maximize
  w~1_1_5 + w~1_2_2 + w~1_3_3 + w~1_4_1 + w~1_4_2 + w~1_4_3 + w~1_5_3
   + w~1_5_4 + w~2_1_5 + w~2_2_2 + w~2_3_3 + w~2_4_1 + w~2_4_2 + w~2_4_3
   + w~2_5_3 + w~2_5_4 + w~3_1_5 + w~3_2_2 + w~3_3_3 + w~3_4_1 + w~3_4_2
   + w~3_4_3 + w~3_5_3 + w~3_5_4 + w~4_1_5 + w~4_2_2 + w~4_3_3 + w~4_4_1
   + w~4_4_2 + w~4_4_3 + w~4_5_3 + w~4_5_4 + w~5_1_5 + w~5_2_2 + w~5_3_3
   + w~5_4_1 + w~5_4_2 + w~5_4_3 + w~5_5_3 + w~5_5_4
Subject To
 c1[1]: y~1_1 + y~1_2 + y~1_3 + y~1_4 + y~1_5 <= 1
 c1[2]: y~2_1 + y~2_2 + y~2_3 + y~2_4 + y~2_5 <= 1
 c1[3]: y~3_1 + y~3_2 + y~3_3 + y~3_4 + y~3_5 <= 1
 c1[4]: y~4_1 + y~4_2 + y~4_3 + y~4_4 + y~4_5 <= 1
 c1[5]: y~5_1 + y~5_2 + y~5_3 + y~5_4 + y~5_5 <= 1
 c2[1]: d3~0_1 = 4
 c2[2]: d3~0_2 = 4
 c2[3]: d3~0_3 = 4
 c2[4]: d3~0_4 = 4
 c2[5]: d3~0_5 = 5
 c3A[1,1]: d1~1_1 - d3~0_1 <= 6
 c3A[1,2]: d1~1_2 - d3~0_2 <= 5
 c3A[1,3]: d1~1_3 - d3~0_3 <= 5
 c3A[1,4]: d1~1_4 - d3~0_4 <= 4
 c3A[1,5]: d1~1_5 - d3~0_5 <= 6
 c3A[2,1]: d1~2_1 - d3~1_1 <= 6
 c3A[2,2]: d1~2_2 - d3~1_2 <= 5
 c3A[2,3]: d1~2_3 - d3~1_3 <= 5
 c3A[2,4]: d1~2_4 - d3~1_4 <= 4
 c3A[2,5]: d1~2_5 - d3~1_5 <= 6
 c3A[3,1]: d1~3_1 - d3~2_1 <= 6
 c3A[3,2]: d1~3_2 - d3~2_2 <= 5
 c3A[3,3]: d1~3_3 - d3~2_3 <= 5
 c3A[3,4]: d1~3_4 - d3~2_4 <= 4
 c3A[3,5]: d1~3_5 - d3~2_5 <= 6
 c3A[4,1]: d1~4_1 - d3~3_1 <= 6
 c3A[4,2]: d1~4_2 - d3~3_2 <= 5
 c3A[4,3]: d1~4_3 - d3~3_3 <= 5
 c3A[4,4]: d1~4_4 - d3~3_4 <= 4
 c3A[4,5]: d1~4_5 - d3~3_5 <= 6
 c3A[5,1]: d1~5_1 - d3~4_1 <= 6
 c3A[5,2]: d1~5_2 - d3~4_2 <= 5
 c3A[5,3]: d1~5_3 - d3~4_3 <= 5
 c3A[5,4]: d1~5_4 - d3~4_4 <= 4
 c3A[5,5]: d1~5_5 - d3~4_5 <= 6
 c3B[1,1]: d1~1_1 <= 10
 c3B[1,2]: d1~1_2 <= 10
 c3B[1,3]: d1~1_3 <= 10
 c3B[1,4]: d1~1_4 <= 10
 c3B[1,5]: d1~1_5 <= 10
 c3B[2,1]: d1~2_1 <= 10
 c3B[2,2]: d1~2_2 <= 10
 c3B[2,3]: d1~2_3 <= 10
 c3B[2,4]: d1~2_4 <= 10
 c3B[2,5]: d1~2_5 <= 10
 c3B[3,1]: d1~3_1 <= 10
 c3B[3,2]: d1~3_2 <= 10
 c3B[3,3]: d1~3_3 <= 10
 c3B[3,4]: d1~3_4 <= 10
 c3B[3,5]: d1~3_5 <= 10
 c3B[4,1]: d1~4_1 <= 10
 c3B[4,2]: d1~4_2 <= 10
 c3B[4,3]: d1~4_3 <= 10
 c3B[4,4]: d1~4_4 <= 10
 c3B[4,5]: d1~4_5 <= 10
 c3B[5,1]: d1~5_1 <= 10
 c3B[5,2]: d1~5_2 <= 10
 c3B[5,3]: d1~5_3 <= 10
 c3B[5,4]: d1~5_4 <= 10
 c3B[5,5]: d1~5_5 <= 10
 c3C[1,1]: d1~1_1 - 10 s~1_1 >= 0
 c3C[1,2]: d1~1_2 - 10 s~1_2 >= 0
 c3C[1,3]: d1~1_3 - 10 s~1_3 >= 0
 c3C[1,4]: d1~1_4 - 10 s~1_4 >= 0
 c3C[1,5]: d1~1_5 - 10 s~1_5 >= 0
 c3C[2,1]: d1~2_1 - 10 s~2_1 >= 0
 c3C[2,2]: d1~2_2 - 10 s~2_2 >= 0
 c3C[2,3]: d1~2_3 - 10 s~2_3 >= 0
 c3C[2,4]: d1~2_4 - 10 s~2_4 >= 0
 c3C[2,5]: d1~2_5 - 10 s~2_5 >= 0
 c3C[3,1]: d1~3_1 - 10 s~3_1 >= 0
 c3C[3,2]: d1~3_2 - 10 s~3_2 >= 0
 c3C[3,3]: d1~3_3 - 10 s~3_3 >= 0
 c3C[3,4]: d1~3_4 - 10 s~3_4 >= 0
 c3C[3,5]: d1~3_5 - 10 s~3_5 >= 0
 c3C[4,1]: d1~4_1 - 10 s~4_1 >= 0
 c3C[4,2]: d1~4_2 - 10 s~4_2 >= 0
 c3C[4,3]: d1~4_3 - 10 s~4_3 >= 0
 c3C[4,4]: d1~4_4 - 10 s~4_4 >= 0
 c3C[4,5]: d1~4_5 - 10 s~4_5 >= 0
 c3C[5,1]: d1~5_1 - 10 s~5_1 >= 0
 c3C[5,2]: d1~5_2 - 10 s~5_2 >= 0
 c3C[5,3]: d1~5_3 - 10 s~5_3 >= 0
 c3C[5,4]: d1~5_4 - 10 s~5_4 >= 0
 c3C[5,5]: d1~5_5 - 10 s~5_5 >= 0
 c3D[1,1]: d1~1_1 - d3~0_1 + 10 s~1_1 >= 6
 c3D[1,2]: d1~1_2 - d3~0_2 + 10 s~1_2 >= 5
 c3D[1,3]: d1~1_3 - d3~0_3 + 10 s~1_3 >= 5
 c3D[1,4]: d1~1_4 - d3~0_4 + 10 s~1_4 >= 4
 c3D[1,5]: d1~1_5 - d3~0_5 + 10 s~1_5 >= 6
 c3D[2,1]: d1~2_1 - d3~1_1 + 10 s~2_1 >= 6
 c3D[2,2]: d1~2_2 - d3~1_2 + 10 s~2_2 >= 5
 c3D[2,3]: d1~2_3 - d3~1_3 + 10 s~2_3 >= 5
 c3D[2,4]: d1~2_4 - d3~1_4 + 10 s~2_4 >= 4
 c3D[2,5]: d1~2_5 - d3~1_5 + 10 s~2_5 >= 6
 c3D[3,1]: d1~3_1 - d3~2_1 + 10 s~3_1 >= 6
 c3D[3,2]: d1~3_2 - d3~2_2 + 10 s~3_2 >= 5
 c3D[3,3]: d1~3_3 - d3~2_3 + 10 s~3_3 >= 5
 c3D[3,4]: d1~3_4 - d3~2_4 + 10 s~3_4 >= 4
 c3D[3,5]: d1~3_5 - d3~2_5 + 10 s~3_5 >= 6
 c3D[4,1]: d1~4_1 - d3~3_1 + 10 s~4_1 >= 6
 c3D[4,2]: d1~4_2 - d3~3_2 + 10 s~4_2 >= 5
 c3D[4,3]: d1~4_3 - d3~3_3 + 10 s~4_3 >= 5
 c3D[4,4]: d1~4_4 - d3~3_4 + 10 s~4_4 >= 4
 c3D[4,5]: d1~4_5 - d3~3_5 + 10 s~4_5 >= 6
 c3D[5,1]: d1~5_1 - d3~4_1 + 10 s~5_1 >= 6
 c3D[5,2]: d1~5_2 - d3~4_2 + 10 s~5_2 >= 5
 c3D[5,3]: d1~5_3 - d3~4_3 + 10 s~5_3 >= 5
 c3D[5,4]: d1~5_4 - d3~4_4 + 10 s~5_4 >= 4
 c3D[5,5]: d1~5_5 - d3~4_5 + 10 s~5_5 >= 6
 c4[1,1]: w~1_1_1 + w~1_2_1 + w~1_3_1 + w~1_4_1 + w~1_5_1 - d1~1_1 + d2~1_1
   = 0
 c4[1,2]: w~1_1_2 + w~1_2_2 + w~1_3_2 + w~1_4_2 + w~1_5_2 - d1~1_2 + d2~1_2
   = 0
 c4[1,3]: w~1_1_3 + w~1_2_3 + w~1_3_3 + w~1_4_3 + w~1_5_3 - d1~1_3 + d2~1_3
   = 0
 c4[1,4]: w~1_1_4 + w~1_2_4 + w~1_3_4 + w~1_4_4 + w~1_5_4 - d1~1_4 + d2~1_4
   = 0
 c4[1,5]: w~1_1_5 + w~1_2_5 + w~1_3_5 + w~1_4_5 + w~1_5_5 - d1~1_5 + d2~1_5
   = 0
 c4[2,1]: w~2_1_1 + w~2_2_1 + w~2_3_1 + w~2_4_1 + w~2_5_1 - d1~2_1 + d2~2_1
   = 0
 c4[2,2]: w~2_1_2 + w~2_2_2 + w~2_3_2 + w~2_4_2 + w~2_5_2 - d1~2_2 + d2~2_2
   = 0
 c4[2,3]: w~2_1_3 + w~2_2_3 + w~2_3_3 + w~2_4_3 + w~2_5_3 - d1~2_3 + d2~2_3
   = 0
 c4[2,4]: w~2_1_4 + w~2_2_4 + w~2_3_4 + w~2_4_4 + w~2_5_4 - d1~2_4 + d2~2_4
   = 0
 c4[2,5]: w~2_1_5 + w~2_2_5 + w~2_3_5 + w~2_4_5 + w~2_5_5 - d1~2_5 + d2~2_5
   = 0
 c4[3,1]: w~3_1_1 + w~3_2_1 + w~3_3_1 + w~3_4_1 + w~3_5_1 - d1~3_1 + d2~3_1
   = 0
 c4[3,2]: w~3_1_2 + w~3_2_2 + w~3_3_2 + w~3_4_2 + w~3_5_2 - d1~3_2 + d2~3_2
   = 0
 c4[3,3]: w~3_1_3 + w~3_2_3 + w~3_3_3 + w~3_4_3 + w~3_5_3 - d1~3_3 + d2~3_3
   = 0
 c4[3,4]: w~3_1_4 + w~3_2_4 + w~3_3_4 + w~3_4_4 + w~3_5_4 - d1~3_4 + d2~3_4
   = 0
 c4[3,5]: w~3_1_5 + w~3_2_5 + w~3_3_5 + w~3_4_5 + w~3_5_5 - d1~3_5 + d2~3_5
   = 0
 c4[4,1]: w~4_1_1 + w~4_2_1 + w~4_3_1 + w~4_4_1 + w~4_5_1 - d1~4_1 + d2~4_1
   = 0
 c4[4,2]: w~4_1_2 + w~4_2_2 + w~4_3_2 + w~4_4_2 + w~4_5_2 - d1~4_2 + d2~4_2
   = 0
 c4[4,3]: w~4_1_3 + w~4_2_3 + w~4_3_3 + w~4_4_3 + w~4_5_3 - d1~4_3 + d2~4_3
   = 0
 c4[4,4]: w~4_1_4 + w~4_2_4 + w~4_3_4 + w~4_4_4 + w~4_5_4 - d1~4_4 + d2~4_4
   = 0
 c4[4,5]: w~4_1_5 + w~4_2_5 + w~4_3_5 + w~4_4_5 + w~4_5_5 - d1~4_5 + d2~4_5
   = 0
 c4[5,1]: w~5_1_1 + w~5_2_1 + w~5_3_1 + w~5_4_1 + w~5_5_1 - d1~5_1 + d2~5_1
   = 0
 c4[5,2]: w~5_1_2 + w~5_2_2 + w~5_3_2 + w~5_4_2 + w~5_5_2 - d1~5_2 + d2~5_2
   = 0
 c4[5,3]: w~5_1_3 + w~5_2_3 + w~5_3_3 + w~5_4_3 + w~5_5_3 - d1~5_3 + d2~5_3
   = 0
 c4[5,4]: w~5_1_4 + w~5_2_4 + w~5_3_4 + w~5_4_4 + w~5_5_4 - d1~5_4 + d2~5_4
   = 0
 c4[5,5]: w~5_1_5 + w~5_2_5 + w~5_3_5 + w~5_4_5 + w~5_5_5 - d1~5_5 + d2~5_5
   = 0
 c5A[1,1]: d3~1_1 >= 0
 c5A[1,2]: d3~1_2 >= 0
 c5A[1,3]: d3~1_3 >= 0
 c5A[1,4]: d3~1_4 >= 0
 c5A[1,5]: d3~1_5 >= 0
 c5A[2,1]: d3~2_1 >= 0
 c5A[2,2]: d3~2_2 >= 0
 c5A[2,3]: d3~2_3 >= 0
 c5A[2,4]: d3~2_4 >= 0
 c5A[2,5]: d3~2_5 >= 0
 c5A[3,1]: d3~3_1 >= 0
 c5A[3,2]: d3~3_2 >= 0
 c5A[3,3]: d3~3_3 >= 0
 c5A[3,4]: d3~3_4 >= 0
 c5A[3,5]: d3~3_5 >= 0
 c5A[4,1]: d3~4_1 >= 0
 c5A[4,2]: d3~4_2 >= 0
 c5A[4,3]: d3~4_3 >= 0
 c5A[4,4]: d3~4_4 >= 0
 c5A[4,5]: d3~4_5 >= 0
 c5A[5,1]: d3~5_1 >= 0
 c5A[5,2]: d3~5_2 >= 0
 c5A[5,3]: d3~5_3 >= 0
 c5A[5,4]: d3~5_4 >= 0
 c5A[5,5]: d3~5_5 >= 0
 c5B[1,1]: - d2~1_1 + d3~1_1 >= 0
 c5B[1,2]: - d2~1_2 + d3~1_2 >= 0
 c5B[1,3]: - d2~1_3 + d3~1_3 >= 0
 c5B[1,4]: - d2~1_4 + d3~1_4 >= 0
 c5B[1,5]: - d2~1_5 + d3~1_5 >= 0
 c5B[2,1]: - d2~2_1 + d3~2_1 >= 0
 c5B[2,2]: - d2~2_2 + d3~2_2 >= 0
 c5B[2,3]: - d2~2_3 + d3~2_3 >= 0
 c5B[2,4]: - d2~2_4 + d3~2_4 >= 0
 c5B[2,5]: - d2~2_5 + d3~2_5 >= 0
 c5B[3,1]: - d2~3_1 + d3~3_1 >= 0
 c5B[3,2]: - d2~3_2 + d3~3_2 >= 0
 c5B[3,3]: - d2~3_3 + d3~3_3 >= 0
 c5B[3,4]: - d2~3_4 + d3~3_4 >= 0
 c5B[3,5]: - d2~3_5 + d3~3_5 >= 0
 c5B[4,1]: - d2~4_1 + d3~4_1 >= 0
 c5B[4,2]: - d2~4_2 + d3~4_2 >= 0
 c5B[4,3]: - d2~4_3 + d3~4_3 >= 0
 c5B[4,4]: - d2~4_4 + d3~4_4 >= 0
 c5B[4,5]: - d2~4_5 + d3~4_5 >= 0
 c5B[5,1]: - d2~5_1 + d3~5_1 >= 0
 c5B[5,2]: - d2~5_2 + d3~5_2 >= 0
 c5B[5,3]: - d2~5_3 + d3~5_3 >= 0
 c5B[5,4]: - d2~5_4 + d3~5_4 >= 0
 c5B[5,5]: - d2~5_5 + d3~5_5 >= 0
 c5C[1,1]: d3~1_1 + 10 t~1_1 <= 10
 c5C[1,2]: d3~1_2 + 10 t~1_2 <= 10
 c5C[1,3]: d3~1_3 + 10 t~1_3 <= 10
 c5C[1,4]: d3~1_4 + 10 t~1_4 <= 10
 c5C[1,5]: d3~1_5 + 10 t~1_5 <= 10
 c5C[2,1]: d3~2_1 + 10 t~2_1 <= 10
 c5C[2,2]: d3~2_2 + 10 t~2_2 <= 10
 c5C[2,3]: d3~2_3 + 10 t~2_3 <= 10
 c5C[2,4]: d3~2_4 + 10 t~2_4 <= 10
 c5C[2,5]: d3~2_5 + 10 t~2_5 <= 10
 c5C[3,1]: d3~3_1 + 10 t~3_1 <= 10
 c5C[3,2]: d3~3_2 + 10 t~3_2 <= 10
 c5C[3,3]: d3~3_3 + 10 t~3_3 <= 10
 c5C[3,4]: d3~3_4 + 10 t~3_4 <= 10
 c5C[3,5]: d3~3_5 + 10 t~3_5 <= 10
 c5C[4,1]: d3~4_1 + 10 t~4_1 <= 10
 c5C[4,2]: d3~4_2 + 10 t~4_2 <= 10
 c5C[4,3]: d3~4_3 + 10 t~4_3 <= 10
 c5C[4,4]: d3~4_4 + 10 t~4_4 <= 10
 c5C[4,5]: d3~4_5 + 10 t~4_5 <= 10
 c5C[5,1]: d3~5_1 + 10 t~5_1 <= 10
 c5C[5,2]: d3~5_2 + 10 t~5_2 <= 10
 c5C[5,3]: d3~5_3 + 10 t~5_3 <= 10
 c5C[5,4]: d3~5_4 + 10 t~5_4 <= 10
 c5C[5,5]: d3~5_5 + 10 t~5_5 <= 10
 c5D[1,1]: - d2~1_1 + d3~1_1 - 10 t~1_1 <= 0
 c5D[1,2]: - d2~1_2 + d3~1_2 - 10 t~1_2 <= 0
 c5D[1,3]: - d2~1_3 + d3~1_3 - 10 t~1_3 <= 0
 c5D[1,4]: - d2~1_4 + d3~1_4 - 10 t~1_4 <= 0
 c5D[1,5]: - d2~1_5 + d3~1_5 - 10 t~1_5 <= 0
 c5D[2,1]: - d2~2_1 + d3~2_1 - 10 t~2_1 <= 0
 c5D[2,2]: - d2~2_2 + d3~2_2 - 10 t~2_2 <= 0
 c5D[2,3]: - d2~2_3 + d3~2_3 - 10 t~2_3 <= 0
 c5D[2,4]: - d2~2_4 + d3~2_4 - 10 t~2_4 <= 0
 c5D[2,5]: - d2~2_5 + d3~2_5 - 10 t~2_5 <= 0
 c5D[3,1]: - d2~3_1 + d3~3_1 - 10 t~3_1 <= 0
 c5D[3,2]: - d2~3_2 + d3~3_2 - 10 t~3_2 <= 0
 c5D[3,3]: - d2~3_3 + d3~3_3 - 10 t~3_3 <= 0
 c5D[3,4]: - d2~3_4 + d3~3_4 - 10 t~3_4 <= 0
 c5D[3,5]: - d2~3_5 + d3~3_5 - 10 t~3_5 <= 0
 c5D[4,1]: - d2~4_1 + d3~4_1 - 10 t~4_1 <= 0
 c5D[4,2]: - d2~4_2 + d3~4_2 - 10 t~4_2 <= 0
 c5D[4,3]: - d2~4_3 + d3~4_3 - 10 t~4_3 <= 0
 c5D[4,4]: - d2~4_4 + d3~4_4 - 10 t~4_4 <= 0
 c5D[4,5]: - d2~4_5 + d3~4_5 - 10 t~4_5 <= 0
 c5D[5,1]: - d2~5_1 + d3~5_1 - 10 t~5_1 <= 0
 c5D[5,2]: - d2~5_2 + d3~5_2 - 10 t~5_2 <= 0
 c5D[5,3]: - d2~5_3 + d3~5_3 - 10 t~5_3 <= 0
 c5D[5,4]: - d2~5_4 + d3~5_4 - 10 t~5_4 <= 0
 c5D[5,5]: - d2~5_5 + d3~5_5 - 10 t~5_5 <= 0
 c6A[1,1,1]: w~1_1_1 <= 0
 c6A[1,1,2]: w~1_1_2 <= 0
 c6A[1,1,3]: w~1_1_3 <= 0
 c6A[1,1,4]: w~1_1_4 <= 0
 c6A[1,1,5]: - 10 y~1_1 + w~1_1_5 <= 0
 c6A[1,2,1]: w~1_2_1 <= 0
 c6A[1,2,2]: - 10 y~1_2 + w~1_2_2 <= 0
 c6A[1,2,3]: w~1_2_3 <= 0
 c6A[1,2,4]: w~1_2_4 <= 0
 c6A[1,2,5]: w~1_2_5 <= 0
 c6A[1,3,1]: w~1_3_1 <= 0
 c6A[1,3,2]: w~1_3_2 <= 0
 c6A[1,3,3]: - 10 y~1_3 + w~1_3_3 <= 0
 c6A[1,3,4]: w~1_3_4 <= 0
 c6A[1,3,5]: w~1_3_5 <= 0
 c6A[1,4,1]: - 10 y~1_4 + w~1_4_1 <= 0
 c6A[1,4,2]: - 10 y~1_4 + w~1_4_2 <= 0
 c6A[1,4,3]: - 10 y~1_4 + w~1_4_3 <= 0
 c6A[1,4,4]: w~1_4_4 <= 0
 c6A[1,4,5]: w~1_4_5 <= 0
 c6A[1,5,1]: w~1_5_1 <= 0
 c6A[1,5,2]: w~1_5_2 <= 0
 c6A[1,5,3]: - 10 y~1_5 + w~1_5_3 <= 0
 c6A[1,5,4]: - 10 y~1_5 + w~1_5_4 <= 0
 c6A[1,5,5]: w~1_5_5 <= 0
 c6A[2,1,1]: w~2_1_1 <= 0
 c6A[2,1,2]: w~2_1_2 <= 0
 c6A[2,1,3]: w~2_1_3 <= 0
 c6A[2,1,4]: w~2_1_4 <= 0
 c6A[2,1,5]: - 10 y~2_1 + w~2_1_5 <= 0
 c6A[2,2,1]: w~2_2_1 <= 0
 c6A[2,2,2]: - 10 y~2_2 + w~2_2_2 <= 0
 c6A[2,2,3]: w~2_2_3 <= 0
 c6A[2,2,4]: w~2_2_4 <= 0
 c6A[2,2,5]: w~2_2_5 <= 0
 c6A[2,3,1]: w~2_3_1 <= 0
 c6A[2,3,2]: w~2_3_2 <= 0
 c6A[2,3,3]: - 10 y~2_3 + w~2_3_3 <= 0
 c6A[2,3,4]: w~2_3_4 <= 0
 c6A[2,3,5]: w~2_3_5 <= 0
 c6A[2,4,1]: - 10 y~2_4 + w~2_4_1 <= 0
 c6A[2,4,2]: - 10 y~2_4 + w~2_4_2 <= 0
 c6A[2,4,3]: - 10 y~2_4 + w~2_4_3 <= 0
 c6A[2,4,4]: w~2_4_4 <= 0
 c6A[2,4,5]: w~2_4_5 <= 0
 c6A[2,5,1]: w~2_5_1 <= 0
 c6A[2,5,2]: w~2_5_2 <= 0
 c6A[2,5,3]: - 10 y~2_5 + w~2_5_3 <= 0
 c6A[2,5,4]: - 10 y~2_5 + w~2_5_4 <= 0
 c6A[2,5,5]: w~2_5_5 <= 0
 c6A[3,1,1]: w~3_1_1 <= 0
 c6A[3,1,2]: w~3_1_2 <= 0
 c6A[3,1,3]: w~3_1_3 <= 0
 c6A[3,1,4]: w~3_1_4 <= 0
 c6A[3,1,5]: - 10 y~3_1 + w~3_1_5 <= 0
 c6A[3,2,1]: w~3_2_1 <= 0
 c6A[3,2,2]: - 10 y~3_2 + w~3_2_2 <= 0
 c6A[3,2,3]: w~3_2_3 <= 0
 c6A[3,2,4]: w~3_2_4 <= 0
 c6A[3,2,5]: w~3_2_5 <= 0
 c6A[3,3,1]: w~3_3_1 <= 0
 c6A[3,3,2]: w~3_3_2 <= 0
 c6A[3,3,3]: - 10 y~3_3 + w~3_3_3 <= 0
 c6A[3,3,4]: w~3_3_4 <= 0
 c6A[3,3,5]: w~3_3_5 <= 0
 c6A[3,4,1]: - 10 y~3_4 + w~3_4_1 <= 0
 c6A[3,4,2]: - 10 y~3_4 + w~3_4_2 <= 0
 c6A[3,4,3]: - 10 y~3_4 + w~3_4_3 <= 0
 c6A[3,4,4]: w~3_4_4 <= 0
 c6A[3,4,5]: w~3_4_5 <= 0
 c6A[3,5,1]: w~3_5_1 <= 0
 c6A[3,5,2]: w~3_5_2 <= 0
 c6A[3,5,3]: - 10 y~3_5 + w~3_5_3 <= 0
 c6A[3,5,4]: - 10 y~3_5 + w~3_5_4 <= 0
 c6A[3,5,5]: w~3_5_5 <= 0
 c6A[4,1,1]: w~4_1_1 <= 0
 c6A[4,1,2]: w~4_1_2 <= 0
 c6A[4,1,3]: w~4_1_3 <= 0
 c6A[4,1,4]: w~4_1_4 <= 0
 c6A[4,1,5]: - 10 y~4_1 + w~4_1_5 <= 0
 c6A[4,2,1]: w~4_2_1 <= 0
 c6A[4,2,2]: - 10 y~4_2 + w~4_2_2 <= 0
 c6A[4,2,3]: w~4_2_3 <= 0
 c6A[4,2,4]: w~4_2_4 <= 0
 c6A[4,2,5]: w~4_2_5 <= 0
 c6A[4,3,1]: w~4_3_1 <= 0
 c6A[4,3,2]: w~4_3_2 <= 0
 c6A[4,3,3]: - 10 y~4_3 + w~4_3_3 <= 0
 c6A[4,3,4]: w~4_3_4 <= 0
 c6A[4,3,5]: w~4_3_5 <= 0
 c6A[4,4,1]: - 10 y~4_4 + w~4_4_1 <= 0
 c6A[4,4,2]: - 10 y~4_4 + w~4_4_2 <= 0
 c6A[4,4,3]: - 10 y~4_4 + w~4_4_3 <= 0
 c6A[4,4,4]: w~4_4_4 <= 0
 c6A[4,4,5]: w~4_4_5 <= 0
 c6A[4,5,1]: w~4_5_1 <= 0
 c6A[4,5,2]: w~4_5_2 <= 0
 c6A[4,5,3]: - 10 y~4_5 + w~4_5_3 <= 0
 c6A[4,5,4]: - 10 y~4_5 + w~4_5_4 <= 0
 c6A[4,5,5]: w~4_5_5 <= 0
 c6A[5,1,1]: w~5_1_1 <= 0
 c6A[5,1,2]: w~5_1_2 <= 0
 c6A[5,1,3]: w~5_1_3 <= 0
 c6A[5,1,4]: w~5_1_4 <= 0
 c6A[5,1,5]: - 10 y~5_1 + w~5_1_5 <= 0
 c6A[5,2,1]: w~5_2_1 <= 0
 c6A[5,2,2]: - 10 y~5_2 + w~5_2_2 <= 0
 c6A[5,2,3]: w~5_2_3 <= 0
 c6A[5,2,4]: w~5_2_4 <= 0
 c6A[5,2,5]: w~5_2_5 <= 0
 c6A[5,3,1]: w~5_3_1 <= 0
 c6A[5,3,2]: w~5_3_2 <= 0
 c6A[5,3,3]: - 10 y~5_3 + w~5_3_3 <= 0
 c6A[5,3,4]: w~5_3_4 <= 0
 c6A[5,3,5]: w~5_3_5 <= 0
 c6A[5,4,1]: - 10 y~5_4 + w~5_4_1 <= 0
 c6A[5,4,2]: - 10 y~5_4 + w~5_4_2 <= 0
 c6A[5,4,3]: - 10 y~5_4 + w~5_4_3 <= 0
 c6A[5,4,4]: w~5_4_4 <= 0
 c6A[5,4,5]: w~5_4_5 <= 0
 c6A[5,5,1]: w~5_5_1 <= 0
 c6A[5,5,2]: w~5_5_2 <= 0
 c6A[5,5,3]: - 10 y~5_5 + w~5_5_3 <= 0
 c6A[5,5,4]: - 10 y~5_5 + w~5_5_4 <= 0
 c6A[5,5,5]: w~5_5_5 <= 0
 c6B[1,1,1]: w~1_1_1 - v~1_1 <= 10
 c6B[1,1,2]: w~1_1_2 - v~1_2 <= 10
 c6B[1,1,3]: w~1_1_3 - v~1_3 <= 10
 c6B[1,1,4]: w~1_1_4 - v~1_4 <= 10
 c6B[1,1,5]: 10 y~1_1 + w~1_1_5 - v~1_5 <= 10
 c6B[1,2,1]: w~1_2_1 - v~1_1 <= 10
 c6B[1,2,2]: 10 y~1_2 + w~1_2_2 - v~1_2 <= 10
 c6B[1,2,3]: w~1_2_3 - v~1_3 <= 10
 c6B[1,2,4]: w~1_2_4 - v~1_4 <= 10
 c6B[1,2,5]: w~1_2_5 - v~1_5 <= 10
 c6B[1,3,1]: w~1_3_1 - v~1_1 <= 10
 c6B[1,3,2]: w~1_3_2 - v~1_2 <= 10
 c6B[1,3,3]: 10 y~1_3 + w~1_3_3 - v~1_3 <= 10
 c6B[1,3,4]: w~1_3_4 - v~1_4 <= 10
 c6B[1,3,5]: w~1_3_5 - v~1_5 <= 10
 c6B[1,4,1]: 10 y~1_4 + w~1_4_1 - v~1_1 <= 10
 c6B[1,4,2]: 10 y~1_4 + w~1_4_2 - v~1_2 <= 10
 c6B[1,4,3]: 10 y~1_4 + w~1_4_3 - v~1_3 <= 10
 c6B[1,4,4]: w~1_4_4 - v~1_4 <= 10
 c6B[1,4,5]: w~1_4_5 - v~1_5 <= 10
 c6B[1,5,1]: w~1_5_1 - v~1_1 <= 10
 c6B[1,5,2]: w~1_5_2 - v~1_2 <= 10
 c6B[1,5,3]: 10 y~1_5 + w~1_5_3 - v~1_3 <= 10
 c6B[1,5,4]: 10 y~1_5 + w~1_5_4 - v~1_4 <= 10
 c6B[1,5,5]: w~1_5_5 - v~1_5 <= 10
 c6B[2,1,1]: w~2_1_1 - v~2_1 <= 10
 c6B[2,1,2]: w~2_1_2 - v~2_2 <= 10
 c6B[2,1,3]: w~2_1_3 - v~2_3 <= 10
 c6B[2,1,4]: w~2_1_4 - v~2_4 <= 10
 c6B[2,1,5]: 10 y~2_1 + w~2_1_5 - v~2_5 <= 10
 c6B[2,2,1]: w~2_2_1 - v~2_1 <= 10
 c6B[2,2,2]: 10 y~2_2 + w~2_2_2 - v~2_2 <= 10
 c6B[2,2,3]: w~2_2_3 - v~2_3 <= 10
 c6B[2,2,4]: w~2_2_4 - v~2_4 <= 10
 c6B[2,2,5]: w~2_2_5 - v~2_5 <= 10
 c6B[2,3,1]: w~2_3_1 - v~2_1 <= 10
 c6B[2,3,2]: w~2_3_2 - v~2_2 <= 10
 c6B[2,3,3]: 10 y~2_3 + w~2_3_3 - v~2_3 <= 10
 c6B[2,3,4]: w~2_3_4 - v~2_4 <= 10
 c6B[2,3,5]: w~2_3_5 - v~2_5 <= 10
 c6B[2,4,1]: 10 y~2_4 + w~2_4_1 - v~2_1 <= 10
 c6B[2,4,2]: 10 y~2_4 + w~2_4_2 - v~2_2 <= 10
 c6B[2,4,3]: 10 y~2_4 + w~2_4_3 - v~2_3 <= 10
 c6B[2,4,4]: w~2_4_4 - v~2_4 <= 10
 c6B[2,4,5]: w~2_4_5 - v~2_5 <= 10
 c6B[2,5,1]: w~2_5_1 - v~2_1 <= 10
 c6B[2,5,2]: w~2_5_2 - v~2_2 <= 10
 c6B[2,5,3]: 10 y~2_5 + w~2_5_3 - v~2_3 <= 10
 c6B[2,5,4]: 10 y~2_5 + w~2_5_4 - v~2_4 <= 10
 c6B[2,5,5]: w~2_5_5 - v~2_5 <= 10
 c6B[3,1,1]: w~3_1_1 - v~3_1 <= 10
 c6B[3,1,2]: w~3_1_2 - v~3_2 <= 10
 c6B[3,1,3]: w~3_1_3 - v~3_3 <= 10
 c6B[3,1,4]: w~3_1_4 - v~3_4 <= 10
 c6B[3,1,5]: 10 y~3_1 + w~3_1_5 - v~3_5 <= 10
 c6B[3,2,1]: w~3_2_1 - v~3_1 <= 10
 c6B[3,2,2]: 10 y~3_2 + w~3_2_2 - v~3_2 <= 10
 c6B[3,2,3]: w~3_2_3 - v~3_3 <= 10
 c6B[3,2,4]: w~3_2_4 - v~3_4 <= 10
 c6B[3,2,5]: w~3_2_5 - v~3_5 <= 10
 c6B[3,3,1]: w~3_3_1 - v~3_1 <= 10
 c6B[3,3,2]: w~3_3_2 - v~3_2 <= 10
 c6B[3,3,3]: 10 y~3_3 + w~3_3_3 - v~3_3 <= 10
 c6B[3,3,4]: w~3_3_4 - v~3_4 <= 10
 c6B[3,3,5]: w~3_3_5 - v~3_5 <= 10
 c6B[3,4,1]: 10 y~3_4 + w~3_4_1 - v~3_1 <= 10
 c6B[3,4,2]: 10 y~3_4 + w~3_4_2 - v~3_2 <= 10
 c6B[3,4,3]: 10 y~3_4 + w~3_4_3 - v~3_3 <= 10
 c6B[3,4,4]: w~3_4_4 - v~3_4 <= 10
 c6B[3,4,5]: w~3_4_5 - v~3_5 <= 10
 c6B[3,5,1]: w~3_5_1 - v~3_1 <= 10
 c6B[3,5,2]: w~3_5_2 - v~3_2 <= 10
 c6B[3,5,3]: 10 y~3_5 + w~3_5_3 - v~3_3 <= 10
 c6B[3,5,4]: 10 y~3_5 + w~3_5_4 - v~3_4 <= 10
 c6B[3,5,5]: w~3_5_5 - v~3_5 <= 10
 c6B[4,1,1]: w~4_1_1 - v~4_1 <= 10
 c6B[4,1,2]: w~4_1_2 - v~4_2 <= 10
 c6B[4,1,3]: w~4_1_3 - v~4_3 <= 10
 c6B[4,1,4]: w~4_1_4 - v~4_4 <= 10
 c6B[4,1,5]: 10 y~4_1 + w~4_1_5 - v~4_5 <= 10
 c6B[4,2,1]: w~4_2_1 - v~4_1 <= 10
 c6B[4,2,2]: 10 y~4_2 + w~4_2_2 - v~4_2 <= 10
 c6B[4,2,3]: w~4_2_3 - v~4_3 <= 10
 c6B[4,2,4]: w~4_2_4 - v~4_4 <= 10
 c6B[4,2,5]: w~4_2_5 - v~4_5 <= 10
 c6B[4,3,1]: w~4_3_1 - v~4_1 <= 10
 c6B[4,3,2]: w~4_3_2 - v~4_2 <= 10
 c6B[4,3,3]: 10 y~4_3 + w~4_3_3 - v~4_3 <= 10
 c6B[4,3,4]: w~4_3_4 - v~4_4 <= 10
 c6B[4,3,5]: w~4_3_5 - v~4_5 <= 10
 c6B[4,4,1]: 10 y~4_4 + w~4_4_1 - v~4_1 <= 10
 c6B[4,4,2]: 10 y~4_4 + w~4_4_2 - v~4_2 <= 10
 c6B[4,4,3]: 10 y~4_4 + w~4_4_3 - v~4_3 <= 10
 c6B[4,4,4]: w~4_4_4 - v~4_4 <= 10
 c6B[4,4,5]: w~4_4_5 - v~4_5 <= 10
 c6B[4,5,1]: w~4_5_1 - v~4_1 <= 10
 c6B[4,5,2]: w~4_5_2 - v~4_2 <= 10
 c6B[4,5,3]: 10 y~4_5 + w~4_5_3 - v~4_3 <= 10
 c6B[4,5,4]: 10 y~4_5 + w~4_5_4 - v~4_4 <= 10
 c6B[4,5,5]: w~4_5_5 - v~4_5 <= 10
 c6B[5,1,1]: w~5_1_1 - v~5_1 <= 10
 c6B[5,1,2]: w~5_1_2 - v~5_2 <= 10
 c6B[5,1,3]: w~5_1_3 - v~5_3 <= 10
 c6B[5,1,4]: w~5_1_4 - v~5_4 <= 10
 c6B[5,1,5]: 10 y~5_1 + w~5_1_5 - v~5_5 <= 10
 c6B[5,2,1]: w~5_2_1 - v~5_1 <= 10
 c6B[5,2,2]: 10 y~5_2 + w~5_2_2 - v~5_2 <= 10
 c6B[5,2,3]: w~5_2_3 - v~5_3 <= 10
 c6B[5,2,4]: w~5_2_4 - v~5_4 <= 10
 c6B[5,2,5]: w~5_2_5 - v~5_5 <= 10
 c6B[5,3,1]: w~5_3_1 - v~5_1 <= 10
 c6B[5,3,2]: w~5_3_2 - v~5_2 <= 10
 c6B[5,3,3]: 10 y~5_3 + w~5_3_3 - v~5_3 <= 10
 c6B[5,3,4]: w~5_3_4 - v~5_4 <= 10
 c6B[5,3,5]: w~5_3_5 - v~5_5 <= 10
 c6B[5,4,1]: 10 y~5_4 + w~5_4_1 - v~5_1 <= 10
 c6B[5,4,2]: 10 y~5_4 + w~5_4_2 - v~5_2 <= 10
 c6B[5,4,3]: 10 y~5_4 + w~5_4_3 - v~5_3 <= 10
 c6B[5,4,4]: w~5_4_4 - v~5_4 <= 10
 c6B[5,4,5]: w~5_4_5 - v~5_5 <= 10
 c6B[5,5,1]: w~5_5_1 - v~5_1 <= 10
 c6B[5,5,2]: w~5_5_2 - v~5_2 <= 10
 c6B[5,5,3]: 10 y~5_5 + w~5_5_3 - v~5_3 <= 10
 c6B[5,5,4]: 10 y~5_5 + w~5_5_4 - v~5_4 <= 10
 c6B[5,5,5]: w~5_5_5 - v~5_5 <= 10
 c6C[1,1,1]: w~1_1_1 >= 0
 c6C[1,1,2]: w~1_1_2 >= 0
 c6C[1,1,3]: w~1_1_3 >= 0
 c6C[1,1,4]: w~1_1_4 >= 0
 c6C[1,1,5]: 10 y~1_1 + w~1_1_5 >= 0
 c6C[1,2,1]: w~1_2_1 >= 0
 c6C[1,2,2]: 10 y~1_2 + w~1_2_2 >= 0
 c6C[1,2,3]: w~1_2_3 >= 0
 c6C[1,2,4]: w~1_2_4 >= 0
 c6C[1,2,5]: w~1_2_5 >= 0
 c6C[1,3,1]: w~1_3_1 >= 0
 c6C[1,3,2]: w~1_3_2 >= 0
 c6C[1,3,3]: 10 y~1_3 + w~1_3_3 >= 0
 c6C[1,3,4]: w~1_3_4 >= 0
 c6C[1,3,5]: w~1_3_5 >= 0
 c6C[1,4,1]: 10 y~1_4 + w~1_4_1 >= 0
 c6C[1,4,2]: 10 y~1_4 + w~1_4_2 >= 0
 c6C[1,4,3]: 10 y~1_4 + w~1_4_3 >= 0
 c6C[1,4,4]: w~1_4_4 >= 0
 c6C[1,4,5]: w~1_4_5 >= 0
 c6C[1,5,1]: w~1_5_1 >= 0
 c6C[1,5,2]: w~1_5_2 >= 0
 c6C[1,5,3]: 10 y~1_5 + w~1_5_3 >= 0
 c6C[1,5,4]: 10 y~1_5 + w~1_5_4 >= 0
 c6C[1,5,5]: w~1_5_5 >= 0
 c6C[2,1,1]: w~2_1_1 >= 0
 c6C[2,1,2]: w~2_1_2 >= 0
 c6C[2,1,3]: w~2_1_3 >= 0
 c6C[2,1,4]: w~2_1_4 >= 0
 c6C[2,1,5]: 10 y~2_1 + w~2_1_5 >= 0
 c6C[2,2,1]: w~2_2_1 >= 0
 c6C[2,2,2]: 10 y~2_2 + w~2_2_2 >= 0
 c6C[2,2,3]: w~2_2_3 >= 0
 c6C[2,2,4]: w~2_2_4 >= 0
 c6C[2,2,5]: w~2_2_5 >= 0
 c6C[2,3,1]: w~2_3_1 >= 0
 c6C[2,3,2]: w~2_3_2 >= 0
 c6C[2,3,3]: 10 y~2_3 + w~2_3_3 >= 0
 c6C[2,3,4]: w~2_3_4 >= 0
 c6C[2,3,5]: w~2_3_5 >= 0
 c6C[2,4,1]: 10 y~2_4 + w~2_4_1 >= 0
 c6C[2,4,2]: 10 y~2_4 + w~2_4_2 >= 0
 c6C[2,4,3]: 10 y~2_4 + w~2_4_3 >= 0
 c6C[2,4,4]: w~2_4_4 >= 0
 c6C[2,4,5]: w~2_4_5 >= 0
 c6C[2,5,1]: w~2_5_1 >= 0
 c6C[2,5,2]: w~2_5_2 >= 0
 c6C[2,5,3]: 10 y~2_5 + w~2_5_3 >= 0
 c6C[2,5,4]: 10 y~2_5 + w~2_5_4 >= 0
 c6C[2,5,5]: w~2_5_5 >= 0
 c6C[3,1,1]: w~3_1_1 >= 0
 c6C[3,1,2]: w~3_1_2 >= 0
 c6C[3,1,3]: w~3_1_3 >= 0
 c6C[3,1,4]: w~3_1_4 >= 0
 c6C[3,1,5]: 10 y~3_1 + w~3_1_5 >= 0
 c6C[3,2,1]: w~3_2_1 >= 0
 c6C[3,2,2]: 10 y~3_2 + w~3_2_2 >= 0
 c6C[3,2,3]: w~3_2_3 >= 0
 c6C[3,2,4]: w~3_2_4 >= 0
 c6C[3,2,5]: w~3_2_5 >= 0
 c6C[3,3,1]: w~3_3_1 >= 0
 c6C[3,3,2]: w~3_3_2 >= 0
 c6C[3,3,3]: 10 y~3_3 + w~3_3_3 >= 0
 c6C[3,3,4]: w~3_3_4 >= 0
 c6C[3,3,5]: w~3_3_5 >= 0
 c6C[3,4,1]: 10 y~3_4 + w~3_4_1 >= 0
 c6C[3,4,2]: 10 y~3_4 + w~3_4_2 >= 0
 c6C[3,4,3]: 10 y~3_4 + w~3_4_3 >= 0
 c6C[3,4,4]: w~3_4_4 >= 0
 c6C[3,4,5]: w~3_4_5 >= 0
 c6C[3,5,1]: w~3_5_1 >= 0
 c6C[3,5,2]: w~3_5_2 >= 0
 c6C[3,5,3]: 10 y~3_5 + w~3_5_3 >= 0
 c6C[3,5,4]: 10 y~3_5 + w~3_5_4 >= 0
 c6C[3,5,5]: w~3_5_5 >= 0
 c6C[4,1,1]: w~4_1_1 >= 0
 c6C[4,1,2]: w~4_1_2 >= 0
 c6C[4,1,3]: w~4_1_3 >= 0
 c6C[4,1,4]: w~4_1_4 >= 0
 c6C[4,1,5]: 10 y~4_1 + w~4_1_5 >= 0
 c6C[4,2,1]: w~4_2_1 >= 0
 c6C[4,2,2]: 10 y~4_2 + w~4_2_2 >= 0
 c6C[4,2,3]: w~4_2_3 >= 0
 c6C[4,2,4]: w~4_2_4 >= 0
 c6C[4,2,5]: w~4_2_5 >= 0
 c6C[4,3,1]: w~4_3_1 >= 0
 c6C[4,3,2]: w~4_3_2 >= 0
 c6C[4,3,3]: 10 y~4_3 + w~4_3_3 >= 0
 c6C[4,3,4]: w~4_3_4 >= 0
 c6C[4,3,5]: w~4_3_5 >= 0
 c6C[4,4,1]: 10 y~4_4 + w~4_4_1 >= 0
 c6C[4,4,2]: 10 y~4_4 + w~4_4_2 >= 0
 c6C[4,4,3]: 10 y~4_4 + w~4_4_3 >= 0
 c6C[4,4,4]: w~4_4_4 >= 0
 c6C[4,4,5]: w~4_4_5 >= 0
 c6C[4,5,1]: w~4_5_1 >= 0
 c6C[4,5,2]: w~4_5_2 >= 0
 c6C[4,5,3]: 10 y~4_5 + w~4_5_3 >= 0
 c6C[4,5,4]: 10 y~4_5 + w~4_5_4 >= 0
 c6C[4,5,5]: w~4_5_5 >= 0
 c6C[5,1,1]: w~5_1_1 >= 0
 c6C[5,1,2]: w~5_1_2 >= 0
 c6C[5,1,3]: w~5_1_3 >= 0
 c6C[5,1,4]: w~5_1_4 >= 0
 c6C[5,1,5]: 10 y~5_1 + w~5_1_5 >= 0
 c6C[5,2,1]: w~5_2_1 >= 0
 c6C[5,2,2]: 10 y~5_2 + w~5_2_2 >= 0
 c6C[5,2,3]: w~5_2_3 >= 0
 c6C[5,2,4]: w~5_2_4 >= 0
 c6C[5,2,5]: w~5_2_5 >= 0
 c6C[5,3,1]: w~5_3_1 >= 0
 c6C[5,3,2]: w~5_3_2 >= 0
 c6C[5,3,3]: 10 y~5_3 + w~5_3_3 >= 0
 c6C[5,3,4]: w~5_3_4 >= 0
 c6C[5,3,5]: w~5_3_5 >= 0
 c6C[5,4,1]: 10 y~5_4 + w~5_4_1 >= 0
 c6C[5,4,2]: 10 y~5_4 + w~5_4_2 >= 0
 c6C[5,4,3]: 10 y~5_4 + w~5_4_3 >= 0
 c6C[5,4,4]: w~5_4_4 >= 0
 c6C[5,4,5]: w~5_4_5 >= 0
 c6C[5,5,1]: w~5_5_1 >= 0
 c6C[5,5,2]: w~5_5_2 >= 0
 c6C[5,5,3]: 10 y~5_5 + w~5_5_3 >= 0
 c6C[5,5,4]: 10 y~5_5 + w~5_5_4 >= 0
 c6C[5,5,5]: w~5_5_5 >= 0
 c6D[1,1,1]: w~1_1_1 - v~1_1 >= -10
 c6D[1,1,2]: w~1_1_2 - v~1_2 >= -10
 c6D[1,1,3]: w~1_1_3 - v~1_3 >= -10
 c6D[1,1,4]: w~1_1_4 - v~1_4 >= -10
 c6D[1,1,5]: - 10 y~1_1 + w~1_1_5 - v~1_5 >= -10
 c6D[1,2,1]: w~1_2_1 - v~1_1 >= -10
 c6D[1,2,2]: - 10 y~1_2 + w~1_2_2 - v~1_2 >= -10
 c6D[1,2,3]: w~1_2_3 - v~1_3 >= -10
 c6D[1,2,4]: w~1_2_4 - v~1_4 >= -10
 c6D[1,2,5]: w~1_2_5 - v~1_5 >= -10
 c6D[1,3,1]: w~1_3_1 - v~1_1 >= -10
 c6D[1,3,2]: w~1_3_2 - v~1_2 >= -10
 c6D[1,3,3]: - 10 y~1_3 + w~1_3_3 - v~1_3 >= -10
 c6D[1,3,4]: w~1_3_4 - v~1_4 >= -10
 c6D[1,3,5]: w~1_3_5 - v~1_5 >= -10
 c6D[1,4,1]: - 10 y~1_4 + w~1_4_1 - v~1_1 >= -10
 c6D[1,4,2]: - 10 y~1_4 + w~1_4_2 - v~1_2 >= -10
 c6D[1,4,3]: - 10 y~1_4 + w~1_4_3 - v~1_3 >= -10
 c6D[1,4,4]: w~1_4_4 - v~1_4 >= -10
 c6D[1,4,5]: w~1_4_5 - v~1_5 >= -10
 c6D[1,5,1]: w~1_5_1 - v~1_1 >= -10
 c6D[1,5,2]: w~1_5_2 - v~1_2 >= -10
 c6D[1,5,3]: - 10 y~1_5 + w~1_5_3 - v~1_3 >= -10
 c6D[1,5,4]: - 10 y~1_5 + w~1_5_4 - v~1_4 >= -10
 c6D[1,5,5]: w~1_5_5 - v~1_5 >= -10
 c6D[2,1,1]: w~2_1_1 - v~2_1 >= -10
 c6D[2,1,2]: w~2_1_2 - v~2_2 >= -10
 c6D[2,1,3]: w~2_1_3 - v~2_3 >= -10
 c6D[2,1,4]: w~2_1_4 - v~2_4 >= -10
 c6D[2,1,5]: - 10 y~2_1 + w~2_1_5 - v~2_5 >= -10
 c6D[2,2,1]: w~2_2_1 - v~2_1 >= -10
 c6D[2,2,2]: - 10 y~2_2 + w~2_2_2 - v~2_2 >= -10
 c6D[2,2,3]: w~2_2_3 - v~2_3 >= -10
 c6D[2,2,4]: w~2_2_4 - v~2_4 >= -10
 c6D[2,2,5]: w~2_2_5 - v~2_5 >= -10
 c6D[2,3,1]: w~2_3_1 - v~2_1 >= -10
 c6D[2,3,2]: w~2_3_2 - v~2_2 >= -10
 c6D[2,3,3]: - 10 y~2_3 + w~2_3_3 - v~2_3 >= -10
 c6D[2,3,4]: w~2_3_4 - v~2_4 >= -10
 c6D[2,3,5]: w~2_3_5 - v~2_5 >= -10
 c6D[2,4,1]: - 10 y~2_4 + w~2_4_1 - v~2_1 >= -10
 c6D[2,4,2]: - 10 y~2_4 + w~2_4_2 - v~2_2 >= -10
 c6D[2,4,3]: - 10 y~2_4 + w~2_4_3 - v~2_3 >= -10
 c6D[2,4,4]: w~2_4_4 - v~2_4 >= -10
 c6D[2,4,5]: w~2_4_5 - v~2_5 >= -10
 c6D[2,5,1]: w~2_5_1 - v~2_1 >= -10
 c6D[2,5,2]: w~2_5_2 - v~2_2 >= -10
 c6D[2,5,3]: - 10 y~2_5 + w~2_5_3 - v~2_3 >= -10
 c6D[2,5,4]: - 10 y~2_5 + w~2_5_4 - v~2_4 >= -10
 c6D[2,5,5]: w~2_5_5 - v~2_5 >= -10
 c6D[3,1,1]: w~3_1_1 - v~3_1 >= -10
 c6D[3,1,2]: w~3_1_2 - v~3_2 >= -10
 c6D[3,1,3]: w~3_1_3 - v~3_3 >= -10
 c6D[3,1,4]: w~3_1_4 - v~3_4 >= -10
 c6D[3,1,5]: - 10 y~3_1 + w~3_1_5 - v~3_5 >= -10
 c6D[3,2,1]: w~3_2_1 - v~3_1 >= -10
 c6D[3,2,2]: - 10 y~3_2 + w~3_2_2 - v~3_2 >= -10
 c6D[3,2,3]: w~3_2_3 - v~3_3 >= -10
 c6D[3,2,4]: w~3_2_4 - v~3_4 >= -10
 c6D[3,2,5]: w~3_2_5 - v~3_5 >= -10
 c6D[3,3,1]: w~3_3_1 - v~3_1 >= -10
 c6D[3,3,2]: w~3_3_2 - v~3_2 >= -10
 c6D[3,3,3]: - 10 y~3_3 + w~3_3_3 - v~3_3 >= -10
 c6D[3,3,4]: w~3_3_4 - v~3_4 >= -10
 c6D[3,3,5]: w~3_3_5 - v~3_5 >= -10
 c6D[3,4,1]: - 10 y~3_4 + w~3_4_1 - v~3_1 >= -10
 c6D[3,4,2]: - 10 y~3_4 + w~3_4_2 - v~3_2 >= -10
 c6D[3,4,3]: - 10 y~3_4 + w~3_4_3 - v~3_3 >= -10
 c6D[3,4,4]: w~3_4_4 - v~3_4 >= -10
 c6D[3,4,5]: w~3_4_5 - v~3_5 >= -10
 c6D[3,5,1]: w~3_5_1 - v~3_1 >= -10
 c6D[3,5,2]: w~3_5_2 - v~3_2 >= -10
 c6D[3,5,3]: - 10 y~3_5 + w~3_5_3 - v~3_3 >= -10
 c6D[3,5,4]: - 10 y~3_5 + w~3_5_4 - v~3_4 >= -10
 c6D[3,5,5]: w~3_5_5 - v~3_5 >= -10
 c6D[4,1,1]: w~4_1_1 - v~4_1 >= -10
 c6D[4,1,2]: w~4_1_2 - v~4_2 >= -10
 c6D[4,1,3]: w~4_1_3 - v~4_3 >= -10
 c6D[4,1,4]: w~4_1_4 - v~4_4 >= -10
 c6D[4,1,5]: - 10 y~4_1 + w~4_1_5 - v~4_5 >= -10
 c6D[4,2,1]: w~4_2_1 - v~4_1 >= -10
 c6D[4,2,2]: - 10 y~4_2 + w~4_2_2 - v~4_2 >= -10
 c6D[4,2,3]: w~4_2_3 - v~4_3 >= -10
 c6D[4,2,4]: w~4_2_4 - v~4_4 >= -10
 c6D[4,2,5]: w~4_2_5 - v~4_5 >= -10
 c6D[4,3,1]: w~4_3_1 - v~4_1 >= -10
 c6D[4,3,2]: w~4_3_2 - v~4_2 >= -10
 c6D[4,3,3]: - 10 y~4_3 + w~4_3_3 - v~4_3 >= -10
 c6D[4,3,4]: w~4_3_4 - v~4_4 >= -10
 c6D[4,3,5]: w~4_3_5 - v~4_5 >= -10
 c6D[4,4,1]: - 10 y~4_4 + w~4_4_1 - v~4_1 >= -10
 c6D[4,4,2]: - 10 y~4_4 + w~4_4_2 - v~4_2 >= -10
 c6D[4,4,3]: - 10 y~4_4 + w~4_4_3 - v~4_3 >= -10
 c6D[4,4,4]: w~4_4_4 - v~4_4 >= -10
 c6D[4,4,5]: w~4_4_5 - v~4_5 >= -10
 c6D[4,5,1]: w~4_5_1 - v~4_1 >= -10
 c6D[4,5,2]: w~4_5_2 - v~4_2 >= -10
 c6D[4,5,3]: - 10 y~4_5 + w~4_5_3 - v~4_3 >= -10
 c6D[4,5,4]: - 10 y~4_5 + w~4_5_4 - v~4_4 >= -10
 c6D[4,5,5]: w~4_5_5 - v~4_5 >= -10
 c6D[5,1,1]: w~5_1_1 - v~5_1 >= -10
 c6D[5,1,2]: w~5_1_2 - v~5_2 >= -10
 c6D[5,1,3]: w~5_1_3 - v~5_3 >= -10
 c6D[5,1,4]: w~5_1_4 - v~5_4 >= -10
 c6D[5,1,5]: - 10 y~5_1 + w~5_1_5 - v~5_5 >= -10
 c6D[5,2,1]: w~5_2_1 - v~5_1 >= -10
 c6D[5,2,2]: - 10 y~5_2 + w~5_2_2 - v~5_2 >= -10
 c6D[5,2,3]: w~5_2_3 - v~5_3 >= -10
 c6D[5,2,4]: w~5_2_4 - v~5_4 >= -10
 c6D[5,2,5]: w~5_2_5 - v~5_5 >= -10
 c6D[5,3,1]: w~5_3_1 - v~5_1 >= -10
 c6D[5,3,2]: w~5_3_2 - v~5_2 >= -10
 c6D[5,3,3]: - 10 y~5_3 + w~5_3_3 - v~5_3 >= -10
 c6D[5,3,4]: w~5_3_4 - v~5_4 >= -10
 c6D[5,3,5]: w~5_3_5 - v~5_5 >= -10
 c6D[5,4,1]: - 10 y~5_4 + w~5_4_1 - v~5_1 >= -10
 c6D[5,4,2]: - 10 y~5_4 + w~5_4_2 - v~5_2 >= -10
 c6D[5,4,3]: - 10 y~5_4 + w~5_4_3 - v~5_3 >= -10
 c6D[5,4,4]: w~5_4_4 - v~5_4 >= -10
 c6D[5,4,5]: w~5_4_5 - v~5_5 >= -10
 c6D[5,5,1]: w~5_5_1 - v~5_1 >= -10
 c6D[5,5,2]: w~5_5_2 - v~5_2 >= -10
 c6D[5,5,3]: - 10 y~5_5 + w~5_5_3 - v~5_3 >= -10
 c6D[5,5,4]: - 10 y~5_5 + w~5_5_4 - v~5_4 >= -10
 c6D[5,5,5]: w~5_5_5 - v~5_5 >= -10
 c6E[1,1]: - d1~1_1 + v~1_1 <= 0
 c6E[1,2]: - d1~1_2 + v~1_2 <= 0
 c6E[1,3]: - d1~1_3 + v~1_3 <= 0
 c6E[1,4]: - d1~1_4 + v~1_4 <= 0
 c6E[1,5]: - d1~1_5 + v~1_5 <= 0
 c6E[2,1]: - d1~2_1 + v~2_1 <= 0
 c6E[2,2]: - d1~2_2 + v~2_2 <= 0
 c6E[2,3]: - d1~2_3 + v~2_3 <= 0
 c6E[2,4]: - d1~2_4 + v~2_4 <= 0
 c6E[2,5]: - d1~2_5 + v~2_5 <= 0
 c6E[3,1]: - d1~3_1 + v~3_1 <= 0
 c6E[3,2]: - d1~3_2 + v~3_2 <= 0
 c6E[3,3]: - d1~3_3 + v~3_3 <= 0
 c6E[3,4]: - d1~3_4 + v~3_4 <= 0
 c6E[3,5]: - d1~3_5 + v~3_5 <= 0
 c6E[4,1]: - d1~4_1 + v~4_1 <= 0
 c6E[4,2]: - d1~4_2 + v~4_2 <= 0
 c6E[4,3]: - d1~4_3 + v~4_3 <= 0
 c6E[4,4]: - d1~4_4 + v~4_4 <= 0
 c6E[4,5]: - d1~4_5 + v~4_5 <= 0
 c6E[5,1]: - d1~5_1 + v~5_1 <= 0
 c6E[5,2]: - d1~5_2 + v~5_2 <= 0
 c6E[5,3]: - d1~5_3 + v~5_3 <= 0
 c6E[5,4]: - d1~5_4 + v~5_4 <= 0
 c6E[5,5]: - d1~5_5 + v~5_5 <= 0
 c6F[1,1]: v~1_1 <= 6
 c6F[1,2]: v~1_2 <= 4
 c6F[1,3]: v~1_3 <= 5
 c6F[1,4]: v~1_4 <= 4
 c6F[1,5]: v~1_5 <= 5
 c6F[2,1]: v~2_1 <= 6
 c6F[2,2]: v~2_2 <= 4
 c6F[2,3]: v~2_3 <= 5
 c6F[2,4]: v~2_4 <= 4
 c6F[2,5]: v~2_5 <= 5
 c6F[3,1]: v~3_1 <= 6
 c6F[3,2]: v~3_2 <= 4
 c6F[3,3]: v~3_3 <= 5
 c6F[3,4]: v~3_4 <= 4
 c6F[3,5]: v~3_5 <= 5
 c6F[4,1]: v~4_1 <= 6
 c6F[4,2]: v~4_2 <= 4
 c6F[4,3]: v~4_3 <= 5
 c6F[4,4]: v~4_4 <= 4
 c6F[4,5]: v~4_5 <= 5
 c6F[5,1]: v~5_1 <= 6
 c6F[5,2]: v~5_2 <= 4
 c6F[5,3]: v~5_3 <= 5
 c6F[5,4]: v~5_4 <= 4
 c6F[5,5]: v~5_5 <= 5
 c6G[1,1]: - d1~1_1 - 10 u~1_1 + v~1_1 >= -10
 c6G[1,2]: - d1~1_2 - 10 u~1_2 + v~1_2 >= -10
 c6G[1,3]: - d1~1_3 - 10 u~1_3 + v~1_3 >= -10
 c6G[1,4]: - d1~1_4 - 10 u~1_4 + v~1_4 >= -10
 c6G[1,5]: - d1~1_5 - 10 u~1_5 + v~1_5 >= -10
 c6G[2,1]: - d1~2_1 - 10 u~2_1 + v~2_1 >= -10
 c6G[2,2]: - d1~2_2 - 10 u~2_2 + v~2_2 >= -10
 c6G[2,3]: - d1~2_3 - 10 u~2_3 + v~2_3 >= -10
 c6G[2,4]: - d1~2_4 - 10 u~2_4 + v~2_4 >= -10
 c6G[2,5]: - d1~2_5 - 10 u~2_5 + v~2_5 >= -10
 c6G[3,1]: - d1~3_1 - 10 u~3_1 + v~3_1 >= -10
 c6G[3,2]: - d1~3_2 - 10 u~3_2 + v~3_2 >= -10
 c6G[3,3]: - d1~3_3 - 10 u~3_3 + v~3_3 >= -10
 c6G[3,4]: - d1~3_4 - 10 u~3_4 + v~3_4 >= -10
 c6G[3,5]: - d1~3_5 - 10 u~3_5 + v~3_5 >= -10
 c6G[4,1]: - d1~4_1 - 10 u~4_1 + v~4_1 >= -10
 c6G[4,2]: - d1~4_2 - 10 u~4_2 + v~4_2 >= -10
 c6G[4,3]: - d1~4_3 - 10 u~4_3 + v~4_3 >= -10
 c6G[4,4]: - d1~4_4 - 10 u~4_4 + v~4_4 >= -10
 c6G[4,5]: - d1~4_5 - 10 u~4_5 + v~4_5 >= -10
 c6G[5,1]: - d1~5_1 - 10 u~5_1 + v~5_1 >= -10
 c6G[5,2]: - d1~5_2 - 10 u~5_2 + v~5_2 >= -10
 c6G[5,3]: - d1~5_3 - 10 u~5_3 + v~5_3 >= -10
 c6G[5,4]: - d1~5_4 - 10 u~5_4 + v~5_4 >= -10
 c6G[5,5]: - d1~5_5 - 10 u~5_5 + v~5_5 >= -10
 c6H[1,1]: 10 u~1_1 + v~1_1 >= 6
 c6H[1,2]: 10 u~1_2 + v~1_2 >= 4
 c6H[1,3]: 10 u~1_3 + v~1_3 >= 5
 c6H[1,4]: 10 u~1_4 + v~1_4 >= 4
 c6H[1,5]: 10 u~1_5 + v~1_5 >= 5
 c6H[2,1]: 10 u~2_1 + v~2_1 >= 6
 c6H[2,2]: 10 u~2_2 + v~2_2 >= 4
 c6H[2,3]: 10 u~2_3 + v~2_3 >= 5
 c6H[2,4]: 10 u~2_4 + v~2_4 >= 4
 c6H[2,5]: 10 u~2_5 + v~2_5 >= 5
 c6H[3,1]: 10 u~3_1 + v~3_1 >= 6
 c6H[3,2]: 10 u~3_2 + v~3_2 >= 4
 c6H[3,3]: 10 u~3_3 + v~3_3 >= 5
 c6H[3,4]: 10 u~3_4 + v~3_4 >= 4
 c6H[3,5]: 10 u~3_5 + v~3_5 >= 5
 c6H[4,1]: 10 u~4_1 + v~4_1 >= 6
 c6H[4,2]: 10 u~4_2 + v~4_2 >= 4
 c6H[4,3]: 10 u~4_3 + v~4_3 >= 5
 c6H[4,4]: 10 u~4_4 + v~4_4 >= 4
 c6H[4,5]: 10 u~4_5 + v~4_5 >= 5
 c6H[5,1]: 10 u~5_1 + v~5_1 >= 6
 c6H[5,2]: 10 u~5_2 + v~5_2 >= 4
 c6H[5,3]: 10 u~5_3 + v~5_3 >= 5
 c6H[5,4]: 10 u~5_4 + v~5_4 >= 4
 c6H[5,5]: 10 u~5_5 + v~5_5 >= 5
Bounds
Binaries
 y~1_1 y~1_2 y~1_3 y~1_4 y~1_5 y~2_1 y~2_2 y~2_3 y~2_4 y~2_5 y~3_1 y~3_2
 y~3_3 y~3_4 y~3_5 y~4_1 y~4_2 y~4_3 y~4_4 y~4_5 y~5_1 y~5_2 y~5_3 y~5_4
 y~5_5 s~1_1 s~1_2 s~1_3 s~1_4 s~1_5 s~2_1 s~2_2 s~2_3 s~2_4 s~2_5 s~3_1
 s~3_2 s~3_3 s~3_4 s~3_5 s~4_1 s~4_2 s~4_3 s~4_4 s~4_5 s~5_1 s~5_2 s~5_3
 s~5_4 s~5_5 t~1_1 t~1_2 t~1_3 t~1_4 t~1_5 t~2_1 t~2_2 t~2_3 t~2_4 t~2_5
 t~3_1 t~3_2 t~3_3 t~3_4 t~3_5 t~4_1 t~4_2 t~4_3 t~4_4 t~4_5 t~5_1 t~5_2
 t~5_3 t~5_4 t~5_5 u~1_1 u~1_2 u~1_3 u~1_4 u~1_5 u~2_1 u~2_2 u~2_3 u~2_4
 u~2_5 u~3_1 u~3_2 u~3_3 u~3_4 u~3_5 u~4_1 u~4_2 u~4_3 u~4_4 u~4_5 u~5_1
 u~5_2 u~5_3 u~5_4 u~5_5
End
